5	20	25	35	15	35	30	35	35	20
40	30	50	40	45	20	30	15	30	35
20	20	40	45	5	40	15	35	50	10
30	30	25	25	40	50	35	15	35	50
40	15	30	20	5	5	35	35	35	30
10	10	40	50	20	10	35	40	35	30
35	30	35	30	10	45	45	15	15	45
20	30	50	20	20	35	30	50	20	30
10	35	20	30	30	30	45	30	45	50
40	10	30	35	40	15	35	20	40	20
